(set-info :smt-lib-version 2.6)
(set-logic QF_NIA)
(set-info :source |
Generated by: Cristina Borralleras, Daniel Larraz, Albert Oliveras, Enric Rodriguez-Carbonell, Albert Rubio
Generated on: 2017-04-27
Generator: VeryMax
Application: Termination proving
Target solver: barcelogic
|)
(set-info :license "https://creativecommons.org/licenses/by/4.0/")
(set-info :category "industrial")
(set-info :status sat)
(declare-fun Nl2main_a1 () Int)
(declare-fun Nl2main_b1 () Int)
(declare-fun Nl2main_am1 () Int)
(declare-fun Nl2main_bm1 () Int)
(declare-fun Nl2main_a2 () Int)
(declare-fun Nl2main_b2 () Int)
(declare-fun Nl2main_am2 () Int)
(declare-fun Nl2main_bm2 () Int)
(declare-fun Nl2main_a3 () Int)
(declare-fun Nl2main_b3 () Int)
(declare-fun Nl2main_am3 () Int)
(declare-fun Nl2main_bm3 () Int)
(declare-fun lam0n0 () Int)
(declare-fun lam0n1 () Int)
(declare-fun lam0n2 () Int)
(declare-fun lam0n3 () Int)
(declare-fun lam0n4 () Int)
(declare-fun lam0n5 () Int)
(declare-fun lam0n6 () Int)
(declare-fun Nl2CT1 () Int)
(declare-fun Nl2CT2 () Int)
(declare-fun Nl2CT3 () Int)
(declare-fun lam1n0 () Int)
(declare-fun lam1n1 () Int)
(declare-fun lam1n2 () Int)
(declare-fun lam1n3 () Int)
(declare-fun lam1n4 () Int)
(declare-fun lam1n5 () Int)
(declare-fun lam1n6 () Int)
(declare-fun lam2n0 () Int)
(declare-fun lam2n1 () Int)
(declare-fun lam2n2 () Int)
(declare-fun lam2n3 () Int)
(declare-fun lam2n4 () Int)
(declare-fun lam2n5 () Int)
(declare-fun lam2n6 () Int)
(declare-fun lam3n0 () Int)
(declare-fun lam3n1 () Int)
(declare-fun lam3n2 () Int)
(declare-fun lam3n3 () Int)
(declare-fun lam3n4 () Int)
(declare-fun lam3n5 () Int)
(declare-fun lam3n6 () Int)
(declare-fun lam4n0 () Int)
(declare-fun lam4n1 () Int)
(declare-fun lam4n2 () Int)
(declare-fun lam4n3 () Int)
(declare-fun lam4n4 () Int)
(declare-fun lam4n5 () Int)
(declare-fun lam5n0 () Int)
(declare-fun lam5n1 () Int)
(declare-fun lam5n2 () Int)
(declare-fun lam5n3 () Int)
(declare-fun lam5n4 () Int)
(declare-fun lam5n5 () Int)
(declare-fun lam6n0 () Int)
(declare-fun lam6n1 () Int)
(declare-fun lam6n2 () Int)
(declare-fun lam6n3 () Int)
(declare-fun lam6n4 () Int)
(declare-fun lam6n5 () Int)
(declare-fun lam7n0 () Int)
(declare-fun lam7n1 () Int)
(declare-fun lam7n2 () Int)
(declare-fun lam7n3 () Int)
(declare-fun lam7n4 () Int)
(declare-fun lam7n5 () Int)
(declare-fun lam8n0 () Int)
(declare-fun lam8n1 () Int)
(declare-fun lam8n2 () Int)
(declare-fun lam8n3 () Int)
(declare-fun lam8n4 () Int)
(declare-fun lam8n5 () Int)
(declare-fun lam8n6 () Int)
(declare-fun lam8n7 () Int)
(declare-fun lam9n0 () Int)
(declare-fun lam9n1 () Int)
(declare-fun lam9n2 () Int)
(declare-fun lam9n3 () Int)
(declare-fun lam9n4 () Int)
(declare-fun lam9n5 () Int)
(declare-fun lam9n6 () Int)
(declare-fun lam9n7 () Int)
(declare-fun lam10n0 () Int)
(declare-fun lam10n1 () Int)
(declare-fun lam10n2 () Int)
(declare-fun lam10n3 () Int)
(declare-fun lam10n4 () Int)
(declare-fun lam10n5 () Int)
(declare-fun lam10n6 () Int)
(declare-fun lam10n7 () Int)
(declare-fun lam11n0 () Int)
(declare-fun lam11n1 () Int)
(declare-fun lam11n2 () Int)
(declare-fun lam11n3 () Int)
(declare-fun lam11n4 () Int)
(declare-fun lam11n5 () Int)
(declare-fun lam11n6 () Int)
(declare-fun lam11n7 () Int)
(declare-fun lam12n0 () Int)
(declare-fun lam12n1 () Int)
(declare-fun lam12n2 () Int)
(declare-fun lam12n3 () Int)
(declare-fun lam12n4 () Int)
(declare-fun lam12n5 () Int)
(declare-fun lam12n6 () Int)
(declare-fun lam13n0 () Int)
(declare-fun lam13n1 () Int)
(declare-fun lam13n2 () Int)
(declare-fun lam13n3 () Int)
(declare-fun lam13n4 () Int)
(declare-fun lam13n5 () Int)
(declare-fun lam13n6 () Int)
(declare-fun lam14n0 () Int)
(declare-fun lam14n1 () Int)
(declare-fun lam14n2 () Int)
(declare-fun lam14n3 () Int)
(declare-fun lam14n4 () Int)
(declare-fun lam14n5 () Int)
(declare-fun lam14n6 () Int)
(declare-fun lam15n0 () Int)
(declare-fun lam15n1 () Int)
(declare-fun lam15n2 () Int)
(declare-fun lam15n3 () Int)
(declare-fun lam15n4 () Int)
(declare-fun lam15n5 () Int)
(declare-fun lam15n6 () Int)
(declare-fun lam16n0 () Int)
(declare-fun lam16n1 () Int)
(declare-fun lam16n2 () Int)
(declare-fun lam16n3 () Int)
(declare-fun lam16n4 () Int)
(declare-fun lam16n5 () Int)
(declare-fun lam17n0 () Int)
(declare-fun lam17n1 () Int)
(declare-fun lam17n2 () Int)
(declare-fun lam17n3 () Int)
(declare-fun lam17n4 () Int)
(declare-fun lam17n5 () Int)
(declare-fun lam18n0 () Int)
(declare-fun lam18n1 () Int)
(declare-fun lam18n2 () Int)
(declare-fun lam18n3 () Int)
(declare-fun lam18n4 () Int)
(declare-fun lam18n5 () Int)
(declare-fun lam19n0 () Int)
(declare-fun lam19n1 () Int)
(declare-fun lam19n2 () Int)
(declare-fun lam19n3 () Int)
(declare-fun lam19n4 () Int)
(declare-fun lam19n5 () Int)
(declare-fun lam20n0 () Int)
(declare-fun lam20n1 () Int)
(declare-fun lam21n0 () Int)
(declare-fun lam21n1 () Int)
(declare-fun lam22n0 () Int)
(declare-fun lam22n1 () Int)
(declare-fun main_a () Int)
(declare-fun main_am () Int)
(declare-fun main_b () Int)
(declare-fun main_bm () Int)
(declare-fun FV_main_a_5 () Int)
(declare-fun FV_main_b_5 () Int)
(declare-fun FV_main_am_5 () Int)
(declare-fun FV_main_bm_5 () Int)
(declare-fun lam23n0 () Int)
(declare-fun lam23n1 () Int)
(declare-fun lam23n2 () Int)
(declare-fun lam23n4 () Int)
(declare-fun lam23n5 () Int)
(declare-fun lam23n6 () Int)
(declare-fun lam23n3 () Int)
(declare-fun lam24n0 () Int)
(declare-fun lam24n1 () Int)
(declare-fun lam24n3 () Int)
(declare-fun lam24n4 () Int)
(declare-fun lam24n5 () Int)
(declare-fun lam24n2 () Int)
(declare-fun FV_main_a_6 () Int)
(declare-fun FV_main_b_6 () Int)
(declare-fun FV_main_am_6 () Int)
(declare-fun FV_main_bm_6 () Int)
(assert ( and ( <= ( - 1 ) Nl2main_a1 ) ( <= Nl2main_a1 1 ) ( <= ( - 1 ) Nl2main_b1 ) ( <= Nl2main_b1 1 ) ( <= ( - 1 ) Nl2main_am1 ) ( <= Nl2main_am1 1 ) ( <= ( - 1 ) Nl2main_bm1 ) ( <= Nl2main_bm1 1 ) ( <= ( - 1 ) Nl2main_a2 ) ( <= Nl2main_a2 1 ) ( <= ( - 1 ) Nl2main_b2 ) ( <= Nl2main_b2 1 ) ( <= ( - 1 ) Nl2main_am2 ) ( <= Nl2main_am2 1 ) ( <= ( - 1 ) Nl2main_bm2 ) ( <= Nl2main_bm2 1 ) ( <= ( - 1 ) Nl2main_a3 ) ( <= Nl2main_a3 1 ) ( <= ( - 1 ) Nl2main_b3 ) ( <= Nl2main_b3 1 ) ( <= ( - 1 ) Nl2main_am3 ) ( <= Nl2main_am3 1 ) ( <= ( - 1 ) Nl2main_bm3 ) ( <= Nl2main_bm3 1 ) ))
(assert ( or ( and ( >= lam0n0 0 ) ( >= lam0n1 0 ) ( >= lam0n2 0 ) ( >= lam0n3 0 ) ( >= lam0n4 0 ) ( >= lam0n5 0 ) ( >= lam0n6 0 ) ( > ( + ( * 1 lam0n2 ) ( * 1 lam0n3 ) ( * Nl2CT1 lam0n4 ) ( * Nl2CT2 lam0n5 ) ( * Nl2CT3 lam0n6 ) ( - 1 ) ) 0 ) ( = ( + ( * 1 lam0n0 ) ( * 1 lam0n1 ) ( * 1 lam0n2 ) ( * Nl2main_a1 lam0n4 ) ( * Nl2main_a2 lam0n5 ) ( * Nl2main_a3 lam0n6 ) ) 0 ) ( = ( + ( * ( - 1 ) lam0n1 ) ( * ( - 1 ) lam0n2 ) ( * Nl2main_b1 lam0n4 ) ( * Nl2main_b2 lam0n5 ) ( * Nl2main_b3 lam0n6 ) ) 0 ) ( = ( + ( * ( - 1 ) lam0n1 ) ( * 1 lam0n3 ) ( * Nl2main_am1 lam0n4 ) ( * Nl2main_am2 lam0n5 ) ( * Nl2main_am3 lam0n6 ) ) 0 ) ( = ( + ( * 1 lam0n1 ) ( * ( - 1 ) lam0n3 ) ( * Nl2main_bm1 lam0n4 ) ( * Nl2main_bm2 lam0n5 ) ( * Nl2main_bm3 lam0n6 ) ) 0 ) ) ( and ( >= lam1n0 0 ) ( >= lam1n1 0 ) ( >= lam1n2 0 ) ( >= lam1n3 0 ) ( >= lam1n4 0 ) ( >= lam1n5 0 ) ( >= lam1n6 0 ) ( > ( + ( * 1 lam1n2 ) ( * 1 lam1n3 ) ( * Nl2CT1 lam1n4 ) ( * Nl2CT2 lam1n5 ) ( * Nl2CT3 lam1n6 ) ( - 1 ( + Nl2CT1 ( * Nl2main_am1 0 ) ) ) ) 0 ) ( = ( + ( * 1 lam1n0 ) ( * 1 lam1n1 ) ( * 1 lam1n2 ) ( * Nl2main_a1 lam1n4 ) ( * Nl2main_a2 lam1n5 ) ( * Nl2main_a3 lam1n6 ) ( - ( + ( + 0 Nl2main_a1 ) ( * Nl2main_am1 1 ) ) ) ) 0 ) ( = ( + ( * ( - 1 ) lam1n1 ) ( * ( - 1 ) lam1n2 ) ( * Nl2main_b1 lam1n4 ) ( * Nl2main_b2 lam1n5 ) ( * Nl2main_b3 lam1n6 ) ( - ( + 0 Nl2main_b1 ) ) ) 0 ) ( = ( + ( * ( - 1 ) lam1n1 ) ( * 1 lam1n3 ) ( * Nl2main_am1 lam1n4 ) ( * Nl2main_am2 lam1n5 ) ( * Nl2main_am3 lam1n6 ) ( - ( + 0 ( * Nl2main_am1 1 ) ) ) ) 0 ) ( = ( + ( * 1 lam1n1 ) ( * ( - 1 ) lam1n3 ) ( * Nl2main_bm1 lam1n4 ) ( * Nl2main_bm2 lam1n5 ) ( * Nl2main_bm3 lam1n6 ) ( - ( + 0 Nl2main_bm1 ) ) ) 0 ) ) ))
(assert ( or ( and ( >= lam0n0 0 ) ( >= lam0n1 0 ) ( >= lam0n2 0 ) ( >= lam0n3 0 ) ( >= lam0n4 0 ) ( >= lam0n5 0 ) ( >= lam0n6 0 ) ( > ( + ( * 1 lam0n2 ) ( * 1 lam0n3 ) ( * Nl2CT1 lam0n4 ) ( * Nl2CT2 lam0n5 ) ( * Nl2CT3 lam0n6 ) ( - 1 ) ) 0 ) ( = ( + ( * 1 lam0n0 ) ( * 1 lam0n1 ) ( * 1 lam0n2 ) ( * Nl2main_a1 lam0n4 ) ( * Nl2main_a2 lam0n5 ) ( * Nl2main_a3 lam0n6 ) ) 0 ) ( = ( + ( * ( - 1 ) lam0n1 ) ( * ( - 1 ) lam0n2 ) ( * Nl2main_b1 lam0n4 ) ( * Nl2main_b2 lam0n5 ) ( * Nl2main_b3 lam0n6 ) ) 0 ) ( = ( + ( * ( - 1 ) lam0n1 ) ( * 1 lam0n3 ) ( * Nl2main_am1 lam0n4 ) ( * Nl2main_am2 lam0n5 ) ( * Nl2main_am3 lam0n6 ) ) 0 ) ( = ( + ( * 1 lam0n1 ) ( * ( - 1 ) lam0n3 ) ( * Nl2main_bm1 lam0n4 ) ( * Nl2main_bm2 lam0n5 ) ( * Nl2main_bm3 lam0n6 ) ) 0 ) ) ( and ( >= lam2n0 0 ) ( >= lam2n1 0 ) ( >= lam2n2 0 ) ( >= lam2n3 0 ) ( >= lam2n4 0 ) ( >= lam2n5 0 ) ( >= lam2n6 0 ) ( > ( + ( * 1 lam2n2 ) ( * 1 lam2n3 ) ( * Nl2CT1 lam2n4 ) ( * Nl2CT2 lam2n5 ) ( * Nl2CT3 lam2n6 ) ( - 1 ( + Nl2CT2 ( * Nl2main_am2 0 ) ) ) ) 0 ) ( = ( + ( * 1 lam2n0 ) ( * 1 lam2n1 ) ( * 1 lam2n2 ) ( * Nl2main_a1 lam2n4 ) ( * Nl2main_a2 lam2n5 ) ( * Nl2main_a3 lam2n6 ) ( - ( + ( + 0 Nl2main_a2 ) ( * Nl2main_am2 1 ) ) ) ) 0 ) ( = ( + ( * ( - 1 ) lam2n1 ) ( * ( - 1 ) lam2n2 ) ( * Nl2main_b1 lam2n4 ) ( * Nl2main_b2 lam2n5 ) ( * Nl2main_b3 lam2n6 ) ( - ( + 0 Nl2main_b2 ) ) ) 0 ) ( = ( + ( * ( - 1 ) lam2n1 ) ( * 1 lam2n3 ) ( * Nl2main_am1 lam2n4 ) ( * Nl2main_am2 lam2n5 ) ( * Nl2main_am3 lam2n6 ) ( - ( + 0 ( * Nl2main_am2 1 ) ) ) ) 0 ) ( = ( + ( * 1 lam2n1 ) ( * ( - 1 ) lam2n3 ) ( * Nl2main_bm1 lam2n4 ) ( * Nl2main_bm2 lam2n5 ) ( * Nl2main_bm3 lam2n6 ) ( - ( + 0 Nl2main_bm2 ) ) ) 0 ) ) ))
(assert ( or ( and ( >= lam0n0 0 ) ( >= lam0n1 0 ) ( >= lam0n2 0 ) ( >= lam0n3 0 ) ( >= lam0n4 0 ) ( >= lam0n5 0 ) ( >= lam0n6 0 ) ( > ( + ( * 1 lam0n2 ) ( * 1 lam0n3 ) ( * Nl2CT1 lam0n4 ) ( * Nl2CT2 lam0n5 ) ( * Nl2CT3 lam0n6 ) ( - 1 ) ) 0 ) ( = ( + ( * 1 lam0n0 ) ( * 1 lam0n1 ) ( * 1 lam0n2 ) ( * Nl2main_a1 lam0n4 ) ( * Nl2main_a2 lam0n5 ) ( * Nl2main_a3 lam0n6 ) ) 0 ) ( = ( + ( * ( - 1 ) lam0n1 ) ( * ( - 1 ) lam0n2 ) ( * Nl2main_b1 lam0n4 ) ( * Nl2main_b2 lam0n5 ) ( * Nl2main_b3 lam0n6 ) ) 0 ) ( = ( + ( * ( - 1 ) lam0n1 ) ( * 1 lam0n3 ) ( * Nl2main_am1 lam0n4 ) ( * Nl2main_am2 lam0n5 ) ( * Nl2main_am3 lam0n6 ) ) 0 ) ( = ( + ( * 1 lam0n1 ) ( * ( - 1 ) lam0n3 ) ( * Nl2main_bm1 lam0n4 ) ( * Nl2main_bm2 lam0n5 ) ( * Nl2main_bm3 lam0n6 ) ) 0 ) ) ( and ( >= lam3n0 0 ) ( >= lam3n1 0 ) ( >= lam3n2 0 ) ( >= lam3n3 0 ) ( >= lam3n4 0 ) ( >= lam3n5 0 ) ( >= lam3n6 0 ) ( > ( + ( * 1 lam3n2 ) ( * 1 lam3n3 ) ( * Nl2CT1 lam3n4 ) ( * Nl2CT2 lam3n5 ) ( * Nl2CT3 lam3n6 ) ( - 1 ( + Nl2CT3 ( * Nl2main_am3 0 ) ) ) ) 0 ) ( = ( + ( * 1 lam3n0 ) ( * 1 lam3n1 ) ( * 1 lam3n2 ) ( * Nl2main_a1 lam3n4 ) ( * Nl2main_a2 lam3n5 ) ( * Nl2main_a3 lam3n6 ) ( - ( + ( + 0 Nl2main_a3 ) ( * Nl2main_am3 1 ) ) ) ) 0 ) ( = ( + ( * ( - 1 ) lam3n1 ) ( * ( - 1 ) lam3n2 ) ( * Nl2main_b1 lam3n4 ) ( * Nl2main_b2 lam3n5 ) ( * Nl2main_b3 lam3n6 ) ( - ( + 0 Nl2main_b3 ) ) ) 0 ) ( = ( + ( * ( - 1 ) lam3n1 ) ( * 1 lam3n3 ) ( * Nl2main_am1 lam3n4 ) ( * Nl2main_am2 lam3n5 ) ( * Nl2main_am3 lam3n6 ) ( - ( + 0 ( * Nl2main_am3 1 ) ) ) ) 0 ) ( = ( + ( * 1 lam3n1 ) ( * ( - 1 ) lam3n3 ) ( * Nl2main_bm1 lam3n4 ) ( * Nl2main_bm2 lam3n5 ) ( * Nl2main_bm3 lam3n6 ) ( - ( + 0 Nl2main_bm3 ) ) ) 0 ) ) ))
(assert ( or ( and ( >= lam4n0 0 ) ( >= lam4n1 0 ) ( >= lam4n2 0 ) ( >= lam4n3 0 ) ( >= lam4n4 0 ) ( >= lam4n5 0 ) ( > ( + ( * 1 lam4n1 ) ( * 1 lam4n2 ) ( * Nl2CT1 lam4n3 ) ( * Nl2CT2 lam4n4 ) ( * Nl2CT3 lam4n5 ) ( - 1 ) ) 0 ) ( = ( + ( * 1 lam4n0 ) ( * ( - 1 ) lam4n1 ) ( * Nl2main_a1 lam4n3 ) ( * Nl2main_a2 lam4n4 ) ( * Nl2main_a3 lam4n5 ) ) 0 ) ( = ( + ( * ( - 1 ) lam4n0 ) ( * Nl2main_b1 lam4n3 ) ( * Nl2main_b2 lam4n4 ) ( * Nl2main_b3 lam4n5 ) ) 0 ) ( = ( + ( * ( - 1 ) lam4n0 ) ( * 1 lam4n2 ) ( * Nl2main_am1 lam4n3 ) ( * Nl2main_am2 lam4n4 ) ( * Nl2main_am3 lam4n5 ) ) 0 ) ( = ( + ( * 1 lam4n0 ) ( * ( - 1 ) lam4n2 ) ( * Nl2main_bm1 lam4n3 ) ( * Nl2main_bm2 lam4n4 ) ( * Nl2main_bm3 lam4n5 ) ) 0 ) ) ( and ( >= lam5n0 0 ) ( >= lam5n1 0 ) ( >= lam5n2 0 ) ( >= lam5n3 0 ) ( >= lam5n4 0 ) ( >= lam5n5 0 ) ( > ( + ( * 1 lam5n1 ) ( * 1 lam5n2 ) ( * Nl2CT1 lam5n3 ) ( * Nl2CT2 lam5n4 ) ( * Nl2CT3 lam5n5 ) ( - 1 ( + Nl2CT1 ( * Nl2main_am1 0 ) ) ) ) 0 ) ( = ( + ( * 1 lam5n0 ) ( * ( - 1 ) lam5n1 ) ( * Nl2main_a1 lam5n3 ) ( * Nl2main_a2 lam5n4 ) ( * Nl2main_a3 lam5n5 ) ( - ( + ( + 0 Nl2main_a1 ) ( * Nl2main_am1 1 ) ) ) ) 0 ) ( = ( + ( * ( - 1 ) lam5n0 ) ( * Nl2main_b1 lam5n3 ) ( * Nl2main_b2 lam5n4 ) ( * Nl2main_b3 lam5n5 ) ( - ( + 0 Nl2main_b1 ) ) ) 0 ) ( = ( + ( * ( - 1 ) lam5n0 ) ( * 1 lam5n2 ) ( * Nl2main_am1 lam5n3 ) ( * Nl2main_am2 lam5n4 ) ( * Nl2main_am3 lam5n5 ) ( - ( + 0 ( * Nl2main_am1 1 ) ) ) ) 0 ) ( = ( + ( * 1 lam5n0 ) ( * ( - 1 ) lam5n2 ) ( * Nl2main_bm1 lam5n3 ) ( * Nl2main_bm2 lam5n4 ) ( * Nl2main_bm3 lam5n5 ) ( - ( + 0 Nl2main_bm1 ) ) ) 0 ) ) ))
(assert ( or ( and ( >= lam4n0 0 ) ( >= lam4n1 0 ) ( >= lam4n2 0 ) ( >= lam4n3 0 ) ( >= lam4n4 0 ) ( >= lam4n5 0 ) ( > ( + ( * 1 lam4n1 ) ( * 1 lam4n2 ) ( * Nl2CT1 lam4n3 ) ( * Nl2CT2 lam4n4 ) ( * Nl2CT3 lam4n5 ) ( - 1 ) ) 0 ) ( = ( + ( * 1 lam4n0 ) ( * ( - 1 ) lam4n1 ) ( * Nl2main_a1 lam4n3 ) ( * Nl2main_a2 lam4n4 ) ( * Nl2main_a3 lam4n5 ) ) 0 ) ( = ( + ( * ( - 1 ) lam4n0 ) ( * Nl2main_b1 lam4n3 ) ( * Nl2main_b2 lam4n4 ) ( * Nl2main_b3 lam4n5 ) ) 0 ) ( = ( + ( * ( - 1 ) lam4n0 ) ( * 1 lam4n2 ) ( * Nl2main_am1 lam4n3 ) ( * Nl2main_am2 lam4n4 ) ( * Nl2main_am3 lam4n5 ) ) 0 ) ( = ( + ( * 1 lam4n0 ) ( * ( - 1 ) lam4n2 ) ( * Nl2main_bm1 lam4n3 ) ( * Nl2main_bm2 lam4n4 ) ( * Nl2main_bm3 lam4n5 ) ) 0 ) ) ( and ( >= lam6n0 0 ) ( >= lam6n1 0 ) ( >= lam6n2 0 ) ( >= lam6n3 0 ) ( >= lam6n4 0 ) ( >= lam6n5 0 ) ( > ( + ( * 1 lam6n1 ) ( * 1 lam6n2 ) ( * Nl2CT1 lam6n3 ) ( * Nl2CT2 lam6n4 ) ( * Nl2CT3 lam6n5 ) ( - 1 ( + Nl2CT2 ( * Nl2main_am2 0 ) ) ) ) 0 ) ( = ( + ( * 1 lam6n0 ) ( * ( - 1 ) lam6n1 ) ( * Nl2main_a1 lam6n3 ) ( * Nl2main_a2 lam6n4 ) ( * Nl2main_a3 lam6n5 ) ( - ( + ( + 0 Nl2main_a2 ) ( * Nl2main_am2 1 ) ) ) ) 0 ) ( = ( + ( * ( - 1 ) lam6n0 ) ( * Nl2main_b1 lam6n3 ) ( * Nl2main_b2 lam6n4 ) ( * Nl2main_b3 lam6n5 ) ( - ( + 0 Nl2main_b2 ) ) ) 0 ) ( = ( + ( * ( - 1 ) lam6n0 ) ( * 1 lam6n2 ) ( * Nl2main_am1 lam6n3 ) ( * Nl2main_am2 lam6n4 ) ( * Nl2main_am3 lam6n5 ) ( - ( + 0 ( * Nl2main_am2 1 ) ) ) ) 0 ) ( = ( + ( * 1 lam6n0 ) ( * ( - 1 ) lam6n2 ) ( * Nl2main_bm1 lam6n3 ) ( * Nl2main_bm2 lam6n4 ) ( * Nl2main_bm3 lam6n5 ) ( - ( + 0 Nl2main_bm2 ) ) ) 0 ) ) ))
(assert ( or ( and ( >= lam4n0 0 ) ( >= lam4n1 0 ) ( >= lam4n2 0 ) ( >= lam4n3 0 ) ( >= lam4n4 0 ) ( >= lam4n5 0 ) ( > ( + ( * 1 lam4n1 ) ( * 1 lam4n2 ) ( * Nl2CT1 lam4n3 ) ( * Nl2CT2 lam4n4 ) ( * Nl2CT3 lam4n5 ) ( - 1 ) ) 0 ) ( = ( + ( * 1 lam4n0 ) ( * ( - 1 ) lam4n1 ) ( * Nl2main_a1 lam4n3 ) ( * Nl2main_a2 lam4n4 ) ( * Nl2main_a3 lam4n5 ) ) 0 ) ( = ( + ( * ( - 1 ) lam4n0 ) ( * Nl2main_b1 lam4n3 ) ( * Nl2main_b2 lam4n4 ) ( * Nl2main_b3 lam4n5 ) ) 0 ) ( = ( + ( * ( - 1 ) lam4n0 ) ( * 1 lam4n2 ) ( * Nl2main_am1 lam4n3 ) ( * Nl2main_am2 lam4n4 ) ( * Nl2main_am3 lam4n5 ) ) 0 ) ( = ( + ( * 1 lam4n0 ) ( * ( - 1 ) lam4n2 ) ( * Nl2main_bm1 lam4n3 ) ( * Nl2main_bm2 lam4n4 ) ( * Nl2main_bm3 lam4n5 ) ) 0 ) ) ( and ( >= lam7n0 0 ) ( >= lam7n1 0 ) ( >= lam7n2 0 ) ( >= lam7n3 0 ) ( >= lam7n4 0 ) ( >= lam7n5 0 ) ( > ( + ( * 1 lam7n1 ) ( * 1 lam7n2 ) ( * Nl2CT1 lam7n3 ) ( * Nl2CT2 lam7n4 ) ( * Nl2CT3 lam7n5 ) ( - 1 ( + Nl2CT3 ( * Nl2main_am3 0 ) ) ) ) 0 ) ( = ( + ( * 1 lam7n0 ) ( * ( - 1 ) lam7n1 ) ( * Nl2main_a1 lam7n3 ) ( * Nl2main_a2 lam7n4 ) ( * Nl2main_a3 lam7n5 ) ( - ( + ( + 0 Nl2main_a3 ) ( * Nl2main_am3 1 ) ) ) ) 0 ) ( = ( + ( * ( - 1 ) lam7n0 ) ( * Nl2main_b1 lam7n3 ) ( * Nl2main_b2 lam7n4 ) ( * Nl2main_b3 lam7n5 ) ( - ( + 0 Nl2main_b3 ) ) ) 0 ) ( = ( + ( * ( - 1 ) lam7n0 ) ( * 1 lam7n2 ) ( * Nl2main_am1 lam7n3 ) ( * Nl2main_am2 lam7n4 ) ( * Nl2main_am3 lam7n5 ) ( - ( + 0 ( * Nl2main_am3 1 ) ) ) ) 0 ) ( = ( + ( * 1 lam7n0 ) ( * ( - 1 ) lam7n2 ) ( * Nl2main_bm1 lam7n3 ) ( * Nl2main_bm2 lam7n4 ) ( * Nl2main_bm3 lam7n5 ) ( - ( + 0 Nl2main_bm3 ) ) ) 0 ) ) ))
(assert ( or ( and ( >= lam8n0 0 ) ( >= lam8n1 0 ) ( >= lam8n2 0 ) ( >= lam8n3 0 ) ( >= lam8n4 0 ) ( >= lam8n5 0 ) ( >= lam8n6 0 ) ( >= lam8n7 0 ) ( > ( + ( * 1 lam8n3 ) ( * 1 lam8n4 ) ( * Nl2CT1 lam8n5 ) ( * Nl2CT2 lam8n6 ) ( * Nl2CT3 lam8n7 ) ( - 1 ) ) 0 ) ( = ( + ( * 1 lam8n0 ) ( * 1 lam8n1 ) ( * ( - 1 ) lam8n2 ) ( * 1 lam8n3 ) ( * Nl2main_a1 lam8n5 ) ( * Nl2main_a2 lam8n6 ) ( * Nl2main_a3 lam8n7 ) ) 0 ) ( = ( + ( * ( - 1 ) lam8n1 ) ( * 1 lam8n2 ) ( * 1 lam8n3 ) ( * Nl2main_b1 lam8n5 ) ( * Nl2main_b2 lam8n6 ) ( * Nl2main_b3 lam8n7 ) ) 0 ) ( = ( + ( * ( - 1 ) lam8n1 ) ( * ( - 1 ) lam8n3 ) ( * ( - 1 ) lam8n4 ) ( * Nl2main_am1 lam8n5 ) ( * Nl2main_am2 lam8n6 ) ( * Nl2main_am3 lam8n7 ) ) 0 ) ( = ( + ( * 1 lam8n1 ) ( * 1 lam8n3 ) ( * 1 lam8n4 ) ( * Nl2main_bm1 lam8n5 ) ( * Nl2main_bm2 lam8n6 ) ( * Nl2main_bm3 lam8n7 ) ) 0 ) ) ( and ( >= lam9n0 0 ) ( >= lam9n1 0 ) ( >= lam9n2 0 ) ( >= lam9n3 0 ) ( >= lam9n4 0 ) ( >= lam9n5 0 ) ( >= lam9n6 0 ) ( >= lam9n7 0 ) ( > ( + ( * 1 lam9n3 ) ( * 1 lam9n4 ) ( * Nl2CT1 lam9n5 ) ( * Nl2CT2 lam9n6 ) ( * Nl2CT3 lam9n7 ) ( - 1 ( + Nl2CT1 ( * Nl2main_bm1 0 ) ) ) ) 0 ) ( = ( + ( * 1 lam9n0 ) ( * 1 lam9n1 ) ( * ( - 1 ) lam9n2 ) ( * 1 lam9n3 ) ( * Nl2main_a1 lam9n5 ) ( * Nl2main_a2 lam9n6 ) ( * Nl2main_a3 lam9n7 ) ( - ( + 0 Nl2main_a1 ) ) ) 0 ) ( = ( + ( * ( - 1 ) lam9n1 ) ( * 1 lam9n2 ) ( * 1 lam9n3 ) ( * Nl2main_b1 lam9n5 ) ( * Nl2main_b2 lam9n6 ) ( * Nl2main_b3 lam9n7 ) ( - ( + ( + 0 Nl2main_b1 ) ( * Nl2main_bm1 1 ) ) ) ) 0 ) ( = ( + ( * ( - 1 ) lam9n1 ) ( * ( - 1 ) lam9n3 ) ( * ( - 1 ) lam9n4 ) ( * Nl2main_am1 lam9n5 ) ( * Nl2main_am2 lam9n6 ) ( * Nl2main_am3 lam9n7 ) ( - ( + 0 Nl2main_am1 ) ) ) 0 ) ( = ( + ( * 1 lam9n1 ) ( * 1 lam9n3 ) ( * 1 lam9n4 ) ( * Nl2main_bm1 lam9n5 ) ( * Nl2main_bm2 lam9n6 ) ( * Nl2main_bm3 lam9n7 ) ( - ( + 0 ( * Nl2main_bm1 1 ) ) ) ) 0 ) ) ))
(assert ( or ( and ( >= lam8n0 0 ) ( >= lam8n1 0 ) ( >= lam8n2 0 ) ( >= lam8n3 0 ) ( >= lam8n4 0 ) ( >= lam8n5 0 ) ( >= lam8n6 0 ) ( >= lam8n7 0 ) ( > ( + ( * 1 lam8n3 ) ( * 1 lam8n4 ) ( * Nl2CT1 lam8n5 ) ( * Nl2CT2 lam8n6 ) ( * Nl2CT3 lam8n7 ) ( - 1 ) ) 0 ) ( = ( + ( * 1 lam8n0 ) ( * 1 lam8n1 ) ( * ( - 1 ) lam8n2 ) ( * 1 lam8n3 ) ( * Nl2main_a1 lam8n5 ) ( * Nl2main_a2 lam8n6 ) ( * Nl2main_a3 lam8n7 ) ) 0 ) ( = ( + ( * ( - 1 ) lam8n1 ) ( * 1 lam8n2 ) ( * 1 lam8n3 ) ( * Nl2main_b1 lam8n5 ) ( * Nl2main_b2 lam8n6 ) ( * Nl2main_b3 lam8n7 ) ) 0 ) ( = ( + ( * ( - 1 ) lam8n1 ) ( * ( - 1 ) lam8n3 ) ( * ( - 1 ) lam8n4 ) ( * Nl2main_am1 lam8n5 ) ( * Nl2main_am2 lam8n6 ) ( * Nl2main_am3 lam8n7 ) ) 0 ) ( = ( + ( * 1 lam8n1 ) ( * 1 lam8n3 ) ( * 1 lam8n4 ) ( * Nl2main_bm1 lam8n5 ) ( * Nl2main_bm2 lam8n6 ) ( * Nl2main_bm3 lam8n7 ) ) 0 ) ) ( and ( >= lam10n0 0 ) ( >= lam10n1 0 ) ( >= lam10n2 0 ) ( >= lam10n3 0 ) ( >= lam10n4 0 ) ( >= lam10n5 0 ) ( >= lam10n6 0 ) ( >= lam10n7 0 ) ( > ( + ( * 1 lam10n3 ) ( * 1 lam10n4 ) ( * Nl2CT1 lam10n5 ) ( * Nl2CT2 lam10n6 ) ( * Nl2CT3 lam10n7 ) ( - 1 ( + Nl2CT2 ( * Nl2main_bm2 0 ) ) ) ) 0 ) ( = ( + ( * 1 lam10n0 ) ( * 1 lam10n1 ) ( * ( - 1 ) lam10n2 ) ( * 1 lam10n3 ) ( * Nl2main_a1 lam10n5 ) ( * Nl2main_a2 lam10n6 ) ( * Nl2main_a3 lam10n7 ) ( - ( + 0 Nl2main_a2 ) ) ) 0 ) ( = ( + ( * ( - 1 ) lam10n1 ) ( * 1 lam10n2 ) ( * 1 lam10n3 ) ( * Nl2main_b1 lam10n5 ) ( * Nl2main_b2 lam10n6 ) ( * Nl2main_b3 lam10n7 ) ( - ( + ( + 0 Nl2main_b2 ) ( * Nl2main_bm2 1 ) ) ) ) 0 ) ( = ( + ( * ( - 1 ) lam10n1 ) ( * ( - 1 ) lam10n3 ) ( * ( - 1 ) lam10n4 ) ( * Nl2main_am1 lam10n5 ) ( * Nl2main_am2 lam10n6 ) ( * Nl2main_am3 lam10n7 ) ( - ( + 0 Nl2main_am2 ) ) ) 0 ) ( = ( + ( * 1 lam10n1 ) ( * 1 lam10n3 ) ( * 1 lam10n4 ) ( * Nl2main_bm1 lam10n5 ) ( * Nl2main_bm2 lam10n6 ) ( * Nl2main_bm3 lam10n7 ) ( - ( + 0 ( * Nl2main_bm2 1 ) ) ) ) 0 ) ) ))
(assert ( or ( and ( >= lam8n0 0 ) ( >= lam8n1 0 ) ( >= lam8n2 0 ) ( >= lam8n3 0 ) ( >= lam8n4 0 ) ( >= lam8n5 0 ) ( >= lam8n6 0 ) ( >= lam8n7 0 ) ( > ( + ( * 1 lam8n3 ) ( * 1 lam8n4 ) ( * Nl2CT1 lam8n5 ) ( * Nl2CT2 lam8n6 ) ( * Nl2CT3 lam8n7 ) ( - 1 ) ) 0 ) ( = ( + ( * 1 lam8n0 ) ( * 1 lam8n1 ) ( * ( - 1 ) lam8n2 ) ( * 1 lam8n3 ) ( * Nl2main_a1 lam8n5 ) ( * Nl2main_a2 lam8n6 ) ( * Nl2main_a3 lam8n7 ) ) 0 ) ( = ( + ( * ( - 1 ) lam8n1 ) ( * 1 lam8n2 ) ( * 1 lam8n3 ) ( * Nl2main_b1 lam8n5 ) ( * Nl2main_b2 lam8n6 ) ( * Nl2main_b3 lam8n7 ) ) 0 ) ( = ( + ( * ( - 1 ) lam8n1 ) ( * ( - 1 ) lam8n3 ) ( * ( - 1 ) lam8n4 ) ( * Nl2main_am1 lam8n5 ) ( * Nl2main_am2 lam8n6 ) ( * Nl2main_am3 lam8n7 ) ) 0 ) ( = ( + ( * 1 lam8n1 ) ( * 1 lam8n3 ) ( * 1 lam8n4 ) ( * Nl2main_bm1 lam8n5 ) ( * Nl2main_bm2 lam8n6 ) ( * Nl2main_bm3 lam8n7 ) ) 0 ) ) ( and ( >= lam11n0 0 ) ( >= lam11n1 0 ) ( >= lam11n2 0 ) ( >= lam11n3 0 ) ( >= lam11n4 0 ) ( >= lam11n5 0 ) ( >= lam11n6 0 ) ( >= lam11n7 0 ) ( > ( + ( * 1 lam11n3 ) ( * 1 lam11n4 ) ( * Nl2CT1 lam11n5 ) ( * Nl2CT2 lam11n6 ) ( * Nl2CT3 lam11n7 ) ( - 1 ( + Nl2CT3 ( * Nl2main_bm3 0 ) ) ) ) 0 ) ( = ( + ( * 1 lam11n0 ) ( * 1 lam11n1 ) ( * ( - 1 ) lam11n2 ) ( * 1 lam11n3 ) ( * Nl2main_a1 lam11n5 ) ( * Nl2main_a2 lam11n6 ) ( * Nl2main_a3 lam11n7 ) ( - ( + 0 Nl2main_a3 ) ) ) 0 ) ( = ( + ( * ( - 1 ) lam11n1 ) ( * 1 lam11n2 ) ( * 1 lam11n3 ) ( * Nl2main_b1 lam11n5 ) ( * Nl2main_b2 lam11n6 ) ( * Nl2main_b3 lam11n7 ) ( - ( + ( + 0 Nl2main_b3 ) ( * Nl2main_bm3 1 ) ) ) ) 0 ) ( = ( + ( * ( - 1 ) lam11n1 ) ( * ( - 1 ) lam11n3 ) ( * ( - 1 ) lam11n4 ) ( * Nl2main_am1 lam11n5 ) ( * Nl2main_am2 lam11n6 ) ( * Nl2main_am3 lam11n7 ) ( - ( + 0 Nl2main_am3 ) ) ) 0 ) ( = ( + ( * 1 lam11n1 ) ( * 1 lam11n3 ) ( * 1 lam11n4 ) ( * Nl2main_bm1 lam11n5 ) ( * Nl2main_bm2 lam11n6 ) ( * Nl2main_bm3 lam11n7 ) ( - ( + 0 ( * Nl2main_bm3 1 ) ) ) ) 0 ) ) ))
(assert ( or ( and ( >= lam12n0 0 ) ( >= lam12n1 0 ) ( >= lam12n2 0 ) ( >= lam12n3 0 ) ( >= lam12n4 0 ) ( >= lam12n5 0 ) ( >= lam12n6 0 ) ( > ( + ( * 1 lam12n2 ) ( * 1 lam12n3 ) ( * Nl2CT1 lam12n4 ) ( * Nl2CT2 lam12n5 ) ( * Nl2CT3 lam12n6 ) ( - 1 ) ) 0 ) ( = ( + ( * 1 lam12n0 ) ( * 1 lam12n1 ) ( * 1 lam12n2 ) ( * Nl2main_a1 lam12n4 ) ( * Nl2main_a2 lam12n5 ) ( * Nl2main_a3 lam12n6 ) ) 0 ) ( = ( + ( * ( - 1 ) lam12n1 ) ( * ( - 1 ) lam12n2 ) ( * Nl2main_b1 lam12n4 ) ( * Nl2main_b2 lam12n5 ) ( * Nl2main_b3 lam12n6 ) ) 0 ) ( = ( + ( * ( - 1 ) lam12n1 ) ( * ( - 1 ) lam12n3 ) ( * Nl2main_am1 lam12n4 ) ( * Nl2main_am2 lam12n5 ) ( * Nl2main_am3 lam12n6 ) ) 0 ) ( = ( + ( * 1 lam12n1 ) ( * 1 lam12n3 ) ( * Nl2main_bm1 lam12n4 ) ( * Nl2main_bm2 lam12n5 ) ( * Nl2main_bm3 lam12n6 ) ) 0 ) ) ( and ( >= lam13n0 0 ) ( >= lam13n1 0 ) ( >= lam13n2 0 ) ( >= lam13n3 0 ) ( >= lam13n4 0 ) ( >= lam13n5 0 ) ( >= lam13n6 0 ) ( > ( + ( * 1 lam13n2 ) ( * 1 lam13n3 ) ( * Nl2CT1 lam13n4 ) ( * Nl2CT2 lam13n5 ) ( * Nl2CT3 lam13n6 ) ( - 1 ( + Nl2CT1 ( * Nl2main_bm1 0 ) ) ) ) 0 ) ( = ( + ( * 1 lam13n0 ) ( * 1 lam13n1 ) ( * 1 lam13n2 ) ( * Nl2main_a1 lam13n4 ) ( * Nl2main_a2 lam13n5 ) ( * Nl2main_a3 lam13n6 ) ( - ( + 0 Nl2main_a1 ) ) ) 0 ) ( = ( + ( * ( - 1 ) lam13n1 ) ( * ( - 1 ) lam13n2 ) ( * Nl2main_b1 lam13n4 ) ( * Nl2main_b2 lam13n5 ) ( * Nl2main_b3 lam13n6 ) ( - ( + ( + 0 Nl2main_b1 ) ( * Nl2main_bm1 1 ) ) ) ) 0 ) ( = ( + ( * ( - 1 ) lam13n1 ) ( * ( - 1 ) lam13n3 ) ( * Nl2main_am1 lam13n4 ) ( * Nl2main_am2 lam13n5 ) ( * Nl2main_am3 lam13n6 ) ( - ( + 0 Nl2main_am1 ) ) ) 0 ) ( = ( + ( * 1 lam13n1 ) ( * 1 lam13n3 ) ( * Nl2main_bm1 lam13n4 ) ( * Nl2main_bm2 lam13n5 ) ( * Nl2main_bm3 lam13n6 ) ( - ( + 0 ( * Nl2main_bm1 1 ) ) ) ) 0 ) ) ))
(assert ( or ( and ( >= lam12n0 0 ) ( >= lam12n1 0 ) ( >= lam12n2 0 ) ( >= lam12n3 0 ) ( >= lam12n4 0 ) ( >= lam12n5 0 ) ( >= lam12n6 0 ) ( > ( + ( * 1 lam12n2 ) ( * 1 lam12n3 ) ( * Nl2CT1 lam12n4 ) ( * Nl2CT2 lam12n5 ) ( * Nl2CT3 lam12n6 ) ( - 1 ) ) 0 ) ( = ( + ( * 1 lam12n0 ) ( * 1 lam12n1 ) ( * 1 lam12n2 ) ( * Nl2main_a1 lam12n4 ) ( * Nl2main_a2 lam12n5 ) ( * Nl2main_a3 lam12n6 ) ) 0 ) ( = ( + ( * ( - 1 ) lam12n1 ) ( * ( - 1 ) lam12n2 ) ( * Nl2main_b1 lam12n4 ) ( * Nl2main_b2 lam12n5 ) ( * Nl2main_b3 lam12n6 ) ) 0 ) ( = ( + ( * ( - 1 ) lam12n1 ) ( * ( - 1 ) lam12n3 ) ( * Nl2main_am1 lam12n4 ) ( * Nl2main_am2 lam12n5 ) ( * Nl2main_am3 lam12n6 ) ) 0 ) ( = ( + ( * 1 lam12n1 ) ( * 1 lam12n3 ) ( * Nl2main_bm1 lam12n4 ) ( * Nl2main_bm2 lam12n5 ) ( * Nl2main_bm3 lam12n6 ) ) 0 ) ) ( and ( >= lam14n0 0 ) ( >= lam14n1 0 ) ( >= lam14n2 0 ) ( >= lam14n3 0 ) ( >= lam14n4 0 ) ( >= lam14n5 0 ) ( >= lam14n6 0 ) ( > ( + ( * 1 lam14n2 ) ( * 1 lam14n3 ) ( * Nl2CT1 lam14n4 ) ( * Nl2CT2 lam14n5 ) ( * Nl2CT3 lam14n6 ) ( - 1 ( + Nl2CT2 ( * Nl2main_bm2 0 ) ) ) ) 0 ) ( = ( + ( * 1 lam14n0 ) ( * 1 lam14n1 ) ( * 1 lam14n2 ) ( * Nl2main_a1 lam14n4 ) ( * Nl2main_a2 lam14n5 ) ( * Nl2main_a3 lam14n6 ) ( - ( + 0 Nl2main_a2 ) ) ) 0 ) ( = ( + ( * ( - 1 ) lam14n1 ) ( * ( - 1 ) lam14n2 ) ( * Nl2main_b1 lam14n4 ) ( * Nl2main_b2 lam14n5 ) ( * Nl2main_b3 lam14n6 ) ( - ( + ( + 0 Nl2main_b2 ) ( * Nl2main_bm2 1 ) ) ) ) 0 ) ( = ( + ( * ( - 1 ) lam14n1 ) ( * ( - 1 ) lam14n3 ) ( * Nl2main_am1 lam14n4 ) ( * Nl2main_am2 lam14n5 ) ( * Nl2main_am3 lam14n6 ) ( - ( + 0 Nl2main_am2 ) ) ) 0 ) ( = ( + ( * 1 lam14n1 ) ( * 1 lam14n3 ) ( * Nl2main_bm1 lam14n4 ) ( * Nl2main_bm2 lam14n5 ) ( * Nl2main_bm3 lam14n6 ) ( - ( + 0 ( * Nl2main_bm2 1 ) ) ) ) 0 ) ) ))
(assert ( or ( and ( >= lam12n0 0 ) ( >= lam12n1 0 ) ( >= lam12n2 0 ) ( >= lam12n3 0 ) ( >= lam12n4 0 ) ( >= lam12n5 0 ) ( >= lam12n6 0 ) ( > ( + ( * 1 lam12n2 ) ( * 1 lam12n3 ) ( * Nl2CT1 lam12n4 ) ( * Nl2CT2 lam12n5 ) ( * Nl2CT3 lam12n6 ) ( - 1 ) ) 0 ) ( = ( + ( * 1 lam12n0 ) ( * 1 lam12n1 ) ( * 1 lam12n2 ) ( * Nl2main_a1 lam12n4 ) ( * Nl2main_a2 lam12n5 ) ( * Nl2main_a3 lam12n6 ) ) 0 ) ( = ( + ( * ( - 1 ) lam12n1 ) ( * ( - 1 ) lam12n2 ) ( * Nl2main_b1 lam12n4 ) ( * Nl2main_b2 lam12n5 ) ( * Nl2main_b3 lam12n6 ) ) 0 ) ( = ( + ( * ( - 1 ) lam12n1 ) ( * ( - 1 ) lam12n3 ) ( * Nl2main_am1 lam12n4 ) ( * Nl2main_am2 lam12n5 ) ( * Nl2main_am3 lam12n6 ) ) 0 ) ( = ( + ( * 1 lam12n1 ) ( * 1 lam12n3 ) ( * Nl2main_bm1 lam12n4 ) ( * Nl2main_bm2 lam12n5 ) ( * Nl2main_bm3 lam12n6 ) ) 0 ) ) ( and ( >= lam15n0 0 ) ( >= lam15n1 0 ) ( >= lam15n2 0 ) ( >= lam15n3 0 ) ( >= lam15n4 0 ) ( >= lam15n5 0 ) ( >= lam15n6 0 ) ( > ( + ( * 1 lam15n2 ) ( * 1 lam15n3 ) ( * Nl2CT1 lam15n4 ) ( * Nl2CT2 lam15n5 ) ( * Nl2CT3 lam15n6 ) ( - 1 ( + Nl2CT3 ( * Nl2main_bm3 0 ) ) ) ) 0 ) ( = ( + ( * 1 lam15n0 ) ( * 1 lam15n1 ) ( * 1 lam15n2 ) ( * Nl2main_a1 lam15n4 ) ( * Nl2main_a2 lam15n5 ) ( * Nl2main_a3 lam15n6 ) ( - ( + 0 Nl2main_a3 ) ) ) 0 ) ( = ( + ( * ( - 1 ) lam15n1 ) ( * ( - 1 ) lam15n2 ) ( * Nl2main_b1 lam15n4 ) ( * Nl2main_b2 lam15n5 ) ( * Nl2main_b3 lam15n6 ) ( - ( + ( + 0 Nl2main_b3 ) ( * Nl2main_bm3 1 ) ) ) ) 0 ) ( = ( + ( * ( - 1 ) lam15n1 ) ( * ( - 1 ) lam15n3 ) ( * Nl2main_am1 lam15n4 ) ( * Nl2main_am2 lam15n5 ) ( * Nl2main_am3 lam15n6 ) ( - ( + 0 Nl2main_am3 ) ) ) 0 ) ( = ( + ( * 1 lam15n1 ) ( * 1 lam15n3 ) ( * Nl2main_bm1 lam15n4 ) ( * Nl2main_bm2 lam15n5 ) ( * Nl2main_bm3 lam15n6 ) ( - ( + 0 ( * Nl2main_bm3 1 ) ) ) ) 0 ) ) ))
(assert ( or ( and ( >= lam16n0 0 ) ( >= lam16n1 0 ) ( >= lam16n2 0 ) ( >= lam16n3 0 ) ( >= lam16n4 0 ) ( >= lam16n5 0 ) ( > ( + ( * 1 lam16n1 ) ( * 1 lam16n2 ) ( * Nl2CT1 lam16n3 ) ( * Nl2CT2 lam16n4 ) ( * Nl2CT3 lam16n5 ) ( - 1 ) ) 0 ) ( = ( + ( * 1 lam16n0 ) ( * ( - 1 ) lam16n1 ) ( * Nl2main_a1 lam16n3 ) ( * Nl2main_a2 lam16n4 ) ( * Nl2main_a3 lam16n5 ) ) 0 ) ( = ( + ( * ( - 1 ) lam16n0 ) ( * Nl2main_b1 lam16n3 ) ( * Nl2main_b2 lam16n4 ) ( * Nl2main_b3 lam16n5 ) ) 0 ) ( = ( + ( * ( - 1 ) lam16n0 ) ( * ( - 1 ) lam16n2 ) ( * Nl2main_am1 lam16n3 ) ( * Nl2main_am2 lam16n4 ) ( * Nl2main_am3 lam16n5 ) ) 0 ) ( = ( + ( * 1 lam16n0 ) ( * 1 lam16n2 ) ( * Nl2main_bm1 lam16n3 ) ( * Nl2main_bm2 lam16n4 ) ( * Nl2main_bm3 lam16n5 ) ) 0 ) ) ( and ( >= lam17n0 0 ) ( >= lam17n1 0 ) ( >= lam17n2 0 ) ( >= lam17n3 0 ) ( >= lam17n4 0 ) ( >= lam17n5 0 ) ( > ( + ( * 1 lam17n1 ) ( * 1 lam17n2 ) ( * Nl2CT1 lam17n3 ) ( * Nl2CT2 lam17n4 ) ( * Nl2CT3 lam17n5 ) ( - 1 ( + Nl2CT1 ( * Nl2main_bm1 0 ) ) ) ) 0 ) ( = ( + ( * 1 lam17n0 ) ( * ( - 1 ) lam17n1 ) ( * Nl2main_a1 lam17n3 ) ( * Nl2main_a2 lam17n4 ) ( * Nl2main_a3 lam17n5 ) ( - ( + 0 Nl2main_a1 ) ) ) 0 ) ( = ( + ( * ( - 1 ) lam17n0 ) ( * Nl2main_b1 lam17n3 ) ( * Nl2main_b2 lam17n4 ) ( * Nl2main_b3 lam17n5 ) ( - ( + ( + 0 Nl2main_b1 ) ( * Nl2main_bm1 1 ) ) ) ) 0 ) ( = ( + ( * ( - 1 ) lam17n0 ) ( * ( - 1 ) lam17n2 ) ( * Nl2main_am1 lam17n3 ) ( * Nl2main_am2 lam17n4 ) ( * Nl2main_am3 lam17n5 ) ( - ( + 0 Nl2main_am1 ) ) ) 0 ) ( = ( + ( * 1 lam17n0 ) ( * 1 lam17n2 ) ( * Nl2main_bm1 lam17n3 ) ( * Nl2main_bm2 lam17n4 ) ( * Nl2main_bm3 lam17n5 ) ( - ( + 0 ( * Nl2main_bm1 1 ) ) ) ) 0 ) ) ))
(assert ( or ( and ( >= lam16n0 0 ) ( >= lam16n1 0 ) ( >= lam16n2 0 ) ( >= lam16n3 0 ) ( >= lam16n4 0 ) ( >= lam16n5 0 ) ( > ( + ( * 1 lam16n1 ) ( * 1 lam16n2 ) ( * Nl2CT1 lam16n3 ) ( * Nl2CT2 lam16n4 ) ( * Nl2CT3 lam16n5 ) ( - 1 ) ) 0 ) ( = ( + ( * 1 lam16n0 ) ( * ( - 1 ) lam16n1 ) ( * Nl2main_a1 lam16n3 ) ( * Nl2main_a2 lam16n4 ) ( * Nl2main_a3 lam16n5 ) ) 0 ) ( = ( + ( * ( - 1 ) lam16n0 ) ( * Nl2main_b1 lam16n3 ) ( * Nl2main_b2 lam16n4 ) ( * Nl2main_b3 lam16n5 ) ) 0 ) ( = ( + ( * ( - 1 ) lam16n0 ) ( * ( - 1 ) lam16n2 ) ( * Nl2main_am1 lam16n3 ) ( * Nl2main_am2 lam16n4 ) ( * Nl2main_am3 lam16n5 ) ) 0 ) ( = ( + ( * 1 lam16n0 ) ( * 1 lam16n2 ) ( * Nl2main_bm1 lam16n3 ) ( * Nl2main_bm2 lam16n4 ) ( * Nl2main_bm3 lam16n5 ) ) 0 ) ) ( and ( >= lam18n0 0 ) ( >= lam18n1 0 ) ( >= lam18n2 0 ) ( >= lam18n3 0 ) ( >= lam18n4 0 ) ( >= lam18n5 0 ) ( > ( + ( * 1 lam18n1 ) ( * 1 lam18n2 ) ( * Nl2CT1 lam18n3 ) ( * Nl2CT2 lam18n4 ) ( * Nl2CT3 lam18n5 ) ( - 1 ( + Nl2CT2 ( * Nl2main_bm2 0 ) ) ) ) 0 ) ( = ( + ( * 1 lam18n0 ) ( * ( - 1 ) lam18n1 ) ( * Nl2main_a1 lam18n3 ) ( * Nl2main_a2 lam18n4 ) ( * Nl2main_a3 lam18n5 ) ( - ( + 0 Nl2main_a2 ) ) ) 0 ) ( = ( + ( * ( - 1 ) lam18n0 ) ( * Nl2main_b1 lam18n3 ) ( * Nl2main_b2 lam18n4 ) ( * Nl2main_b3 lam18n5 ) ( - ( + ( + 0 Nl2main_b2 ) ( * Nl2main_bm2 1 ) ) ) ) 0 ) ( = ( + ( * ( - 1 ) lam18n0 ) ( * ( - 1 ) lam18n2 ) ( * Nl2main_am1 lam18n3 ) ( * Nl2main_am2 lam18n4 ) ( * Nl2main_am3 lam18n5 ) ( - ( + 0 Nl2main_am2 ) ) ) 0 ) ( = ( + ( * 1 lam18n0 ) ( * 1 lam18n2 ) ( * Nl2main_bm1 lam18n3 ) ( * Nl2main_bm2 lam18n4 ) ( * Nl2main_bm3 lam18n5 ) ( - ( + 0 ( * Nl2main_bm2 1 ) ) ) ) 0 ) ) ))
(assert ( or ( and ( >= lam16n0 0 ) ( >= lam16n1 0 ) ( >= lam16n2 0 ) ( >= lam16n3 0 ) ( >= lam16n4 0 ) ( >= lam16n5 0 ) ( > ( + ( * 1 lam16n1 ) ( * 1 lam16n2 ) ( * Nl2CT1 lam16n3 ) ( * Nl2CT2 lam16n4 ) ( * Nl2CT3 lam16n5 ) ( - 1 ) ) 0 ) ( = ( + ( * 1 lam16n0 ) ( * ( - 1 ) lam16n1 ) ( * Nl2main_a1 lam16n3 ) ( * Nl2main_a2 lam16n4 ) ( * Nl2main_a3 lam16n5 ) ) 0 ) ( = ( + ( * ( - 1 ) lam16n0 ) ( * Nl2main_b1 lam16n3 ) ( * Nl2main_b2 lam16n4 ) ( * Nl2main_b3 lam16n5 ) ) 0 ) ( = ( + ( * ( - 1 ) lam16n0 ) ( * ( - 1 ) lam16n2 ) ( * Nl2main_am1 lam16n3 ) ( * Nl2main_am2 lam16n4 ) ( * Nl2main_am3 lam16n5 ) ) 0 ) ( = ( + ( * 1 lam16n0 ) ( * 1 lam16n2 ) ( * Nl2main_bm1 lam16n3 ) ( * Nl2main_bm2 lam16n4 ) ( * Nl2main_bm3 lam16n5 ) ) 0 ) ) ( and ( >= lam19n0 0 ) ( >= lam19n1 0 ) ( >= lam19n2 0 ) ( >= lam19n3 0 ) ( >= lam19n4 0 ) ( >= lam19n5 0 ) ( > ( + ( * 1 lam19n1 ) ( * 1 lam19n2 ) ( * Nl2CT1 lam19n3 ) ( * Nl2CT2 lam19n4 ) ( * Nl2CT3 lam19n5 ) ( - 1 ( + Nl2CT3 ( * Nl2main_bm3 0 ) ) ) ) 0 ) ( = ( + ( * 1 lam19n0 ) ( * ( - 1 ) lam19n1 ) ( * Nl2main_a1 lam19n3 ) ( * Nl2main_a2 lam19n4 ) ( * Nl2main_a3 lam19n5 ) ( - ( + 0 Nl2main_a3 ) ) ) 0 ) ( = ( + ( * ( - 1 ) lam19n0 ) ( * Nl2main_b1 lam19n3 ) ( * Nl2main_b2 lam19n4 ) ( * Nl2main_b3 lam19n5 ) ( - ( + ( + 0 Nl2main_b3 ) ( * Nl2main_bm3 1 ) ) ) ) 0 ) ( = ( + ( * ( - 1 ) lam19n0 ) ( * ( - 1 ) lam19n2 ) ( * Nl2main_am1 lam19n3 ) ( * Nl2main_am2 lam19n4 ) ( * Nl2main_am3 lam19n5 ) ( - ( + 0 Nl2main_am3 ) ) ) 0 ) ( = ( + ( * 1 lam19n0 ) ( * 1 lam19n2 ) ( * Nl2main_bm1 lam19n3 ) ( * Nl2main_bm2 lam19n4 ) ( * Nl2main_bm3 lam19n5 ) ( - ( + 0 ( * Nl2main_bm3 1 ) ) ) ) 0 ) ) ))
(assert ( and ( <= ( + Nl2CT1 ( * Nl2main_a1 FV_main_a_5 ) ( * Nl2main_b1 FV_main_b_5 ) ( * Nl2main_am1 FV_main_am_5 ) ( * Nl2main_bm1 FV_main_bm_5 ) ) 0 ) ( <= ( + Nl2CT2 ( * Nl2main_a2 FV_main_a_5 ) ( * Nl2main_b2 FV_main_b_5 ) ( * Nl2main_am2 FV_main_am_5 ) ( * Nl2main_bm2 FV_main_bm_5 ) ) 0 ) ( <= ( + Nl2CT3 ( * Nl2main_a3 FV_main_a_5 ) ( * Nl2main_b3 FV_main_b_5 ) ( * Nl2main_am3 FV_main_am_5 ) ( * Nl2main_bm3 FV_main_bm_5 ) ) 0 ) ))
(assert ( or ( and ( >= lam23n0 0 ) ( >= lam23n1 0 ) ( >= lam23n2 0 ) ( >= lam23n4 0 ) ( >= lam23n5 0 ) ( >= lam23n6 0 ) ( > ( + ( * 1 lam23n2 ) ( * Nl2CT1 lam23n4 ) ( * Nl2CT2 lam23n5 ) ( * Nl2CT3 lam23n6 ) ( - 1 ) ) 0 ) ( = ( + ( * 1 lam23n0 ) ( * ( - 1 ) lam23n1 ) ( * ( - 1 ) lam23n2 ) ( * Nl2main_a1 lam23n4 ) ( * Nl2main_a2 lam23n5 ) ( * Nl2main_a3 lam23n6 ) ) 0 ) ( = ( + ( * ( - 1 ) lam23n0 ) ( * ( - 1 ) lam23n1 ) ( * Nl2main_b1 lam23n4 ) ( * Nl2main_b2 lam23n5 ) ( * Nl2main_b3 lam23n6 ) ) 0 ) ( = ( + ( * ( - 1 ) lam23n0 ) ( * 1 lam23n1 ) ( * 1 lam23n3 ) ( * Nl2main_am1 lam23n4 ) ( * Nl2main_am2 lam23n5 ) ( * Nl2main_am3 lam23n6 ) ) 0 ) ( = ( + ( * 1 lam23n0 ) ( * ( - 1 ) lam23n1 ) ( * ( - 1 ) lam23n3 ) ( * Nl2main_bm1 lam23n4 ) ( * Nl2main_bm2 lam23n5 ) ( * Nl2main_bm3 lam23n6 ) ) 0 ) ) ( and ( >= lam24n0 0 ) ( >= lam24n1 0 ) ( >= lam24n3 0 ) ( >= lam24n4 0 ) ( >= lam24n5 0 ) ( > ( + ( * Nl2CT1 lam24n3 ) ( * Nl2CT2 lam24n4 ) ( * Nl2CT3 lam24n5 ) ( - 1 ) ) 0 ) ( = ( + ( * 1 lam24n0 ) ( * 1 lam24n1 ) ( * Nl2main_a1 lam24n3 ) ( * Nl2main_a2 lam24n4 ) ( * Nl2main_a3 lam24n5 ) ) 0 ) ( = ( + ( * ( - 1 ) lam24n1 ) ( * Nl2main_b1 lam24n3 ) ( * Nl2main_b2 lam24n4 ) ( * Nl2main_b3 lam24n5 ) ) 0 ) ( = ( + ( * ( - 1 ) lam24n1 ) ( * 1 lam24n2 ) ( * Nl2main_am1 lam24n3 ) ( * Nl2main_am2 lam24n4 ) ( * Nl2main_am3 lam24n5 ) ) 0 ) ( = ( + ( * 1 lam24n1 ) ( * ( - 1 ) lam24n2 ) ( * Nl2main_bm1 lam24n3 ) ( * Nl2main_bm2 lam24n4 ) ( * Nl2main_bm3 lam24n5 ) ) 0 ) ) ))
(assert ( and ( and ( <= ( + Nl2CT1 ( * Nl2main_a1 FV_main_a_6 ) ( * Nl2main_b1 FV_main_b_6 ) ( * Nl2main_am1 FV_main_am_6 ) ( * Nl2main_bm1 FV_main_bm_6 ) ) 0 ) ( <= ( + Nl2CT2 ( * Nl2main_a2 FV_main_a_6 ) ( * Nl2main_b2 FV_main_b_6 ) ( * Nl2main_am2 FV_main_am_6 ) ( * Nl2main_bm2 FV_main_bm_6 ) ) 0 ) ( <= ( + Nl2CT3 ( * Nl2main_a3 FV_main_a_6 ) ( * Nl2main_b3 FV_main_b_6 ) ( * Nl2main_am3 FV_main_am_6 ) ( * Nl2main_bm3 FV_main_bm_6 ) ) 0 ) ) ( or ( and ( <= FV_main_a_6 0 ) ( <= ( + FV_main_a_6 ( * ( - 1 ) FV_main_b_6 ) ( * ( - 1 ) FV_main_am_6 ) FV_main_bm_6 ) 0 ) ( <= ( + 1 FV_main_a_6 ( * ( - 1 ) FV_main_b_6 ) ) 0 ) ( <= ( + 1 FV_main_am_6 ( * ( - 1 ) FV_main_bm_6 ) ) 0 ) ) ( and ( <= ( + FV_main_a_6 ( * ( - 1 ) FV_main_b_6 ) ( * ( - 1 ) FV_main_am_6 ) FV_main_bm_6 ) 0 ) ( <= ( + 1 ( * ( - 1 ) FV_main_a_6 ) ) 0 ) ( <= ( + 1 FV_main_am_6 ( * ( - 1 ) FV_main_bm_6 ) ) 0 ) ) ( and ( <= FV_main_a_6 0 ) ( <= ( + FV_main_a_6 ( * ( - 1 ) FV_main_b_6 ) ( * ( - 1 ) FV_main_am_6 ) FV_main_bm_6 ) 0 ) ( <= ( + ( * ( - 1 ) FV_main_a_6 ) FV_main_b_6 ) 0 ) ( <= ( + 1 FV_main_a_6 FV_main_b_6 ( * ( - 1 ) FV_main_am_6 ) FV_main_bm_6 ) 0 ) ( <= ( + 1 ( * ( - 1 ) FV_main_am_6 ) FV_main_bm_6 ) 0 ) ) ( and ( <= FV_main_a_6 0 ) ( <= ( + FV_main_a_6 ( * ( - 1 ) FV_main_b_6 ) ( * ( - 1 ) FV_main_am_6 ) FV_main_bm_6 ) 0 ) ( <= ( + 1 FV_main_a_6 ( * ( - 1 ) FV_main_b_6 ) ) 0 ) ( <= ( + 1 ( * ( - 1 ) FV_main_am_6 ) FV_main_bm_6 ) 0 ) ) ( and ( <= ( + FV_main_a_6 ( * ( - 1 ) FV_main_b_6 ) ( * ( - 1 ) FV_main_am_6 ) FV_main_bm_6 ) 0 ) ( <= ( + 1 ( * ( - 1 ) FV_main_a_6 ) ) 0 ) ( <= ( + 1 ( * ( - 1 ) FV_main_am_6 ) FV_main_bm_6 ) 0 ) ) ) ))
(check-sat)
(exit)
